20
1 3
1 4
1 7
1 8
1 10
1 11
1 12
1 13
1 14
1 15
1 17
1 19
1 20
2 3
2 8
2 11
2 13
2 15
2 16
3 1
3 2
3 4
3 5
3 6
3 9
3 11
3 13
3 20
4 1
4 3
4 6
4 7
4 13
4 14
4 15
4 17
4 18
4 20
5 3
5 6
5 7
5 8
5 10
5 11
5 12
5 16
5 19
5 20
6 3
6 4
6 5
6 9
6 10
6 14
6 16
6 19
6 20
7 1
7 4
7 5
7 9
7 11
7 12
7 14
7 16
7 17
7 18
8 1
8 2
8 5
8 9
8 10
8 12
8 16
8 19
8 20
9 3
9 6
9 7
9 8
9 13
9 16
9 17
9 18
9 20
10 1
10 5
10 6
10 8
10 11
10 12
10 15
10 17
10 18
11 1
11 2
11 3
11 5
11 7
11 10
11 14
11 15
11 16
11 20
12 1
12 5
12 7
12 8
12 10
12 14
12 20
13 1
13 2
13 3
13 4
13 9
13 14
13 16
13 18
13 19
13 20
14 1
14 4
14 6
14 7
14 11
14 12
14 13
14 16
14 17
14 18
14 20
15 1
15 2
15 4
15 10
15 11
15 18
15 20
16 2
16 5
16 6
16 7
16 8
16 9
16 11
16 13
16 14
16 17
16 18
16 20
17 1
17 4
17 7
17 9
17 10
17 14
17 16
17 18
18 4
18 7
18 9
18 10
18 13
18 14
18 15
18 16
18 17
18 19
19 1
19 5
19 6
19 8
19 13
19 18
19 20
20 1
20 3
20 4
20 5
20 6
20 8
20 9
20 11
20 12
20 13
20 14
20 15
20 16
20 19
